8
0, 624, 655, 402, 625, 627, 690, 485
624, 0, 84, 314, 628, 630, 80, 635
655, 84, 0, 302, 574, 576, 51, 600
402, 314, 302, 0, 373, 375, 350, 333
625, 628, 574, 373, 0, 2, 624, 160
627, 630, 576, 375, 2, 0, 625, 161
690, 80, 51, 350, 624, 625, 0, 651
485, 635, 600, 333, 160, 161, 651, 0
